 Maximize
[ 1.0000000000000000 Z0 * Z17  ]
Subject to
c1: [ -1.0000000000000000 Z0 * Z17  + 1.0000000000000000 Z18 * Z38 -1.0000000000000000 Z18 * Z41 -1.0000000000000000 Z19 * Z35  + 1.0000000000000000 Z19 * Z40  + 1.0000000000000000 Z20 * Z34 -1.0000000000000000 Z20 * Z37 -1.0000000000000000 Z21 * Z38  + 1.0000000000000000 Z21 * Z41  + 1.0000000000000000 Z22 * Z32 -1.0000000000000000 Z22 * Z39 -1.0000000000000000 Z23 * Z31  + 1.0000000000000000 Z23 * Z36  + 1.0000000000000000 Z24 * Z35 -1.0000000000000000 Z24 * Z40 -1.0000000000000000 Z25 * Z32  + 1.0000000000000000 Z25 * Z39  + 1.0000000000000000 Z26 * Z30 -1.0000000000000000 Z26 * Z33 -1.0000000000000000 Z27 * Z34  + 1.0000000000000000 Z27 * Z37  + 1.0000000000000000 Z28 * Z31 -1.0000000000000000 Z28 * Z36 -1.0000000000000000 Z29 * Z30  + 1.0000000000000000 Z29 * Z33  ] >= 0.000000
ac1: Z0 - 1 = 0
ac2: [ 1.0000000000000000 Z0 * Z18 -1.0000000000000000 Z1 * Z6  ] = 0
ac3: [ 1.0000000000000000 Z0 * Z38 -1.0000000000000000 Z11 * Z16  ] = 0
ac4: [ 1.0000000000000000 Z0 * Z41 -1.0000000000000000 Z12 * Z15  ] = 0
ac5: [ 1.0000000000000000 Z0 * Z19 -1.0000000000000000 Z1 * Z7  ] = 0
ac6: [ 1.0000000000000000 Z6 * Z19 -1.0000000000000000 Z7 * Z18  ] = 0
ac7: [ 1.0000000000000000 Z0 * Z35 -1.0000000000000000 Z10 * Z16  ] = 0
ac8: [ 1.0000000000000000 Z0 * Z40 -1.0000000000000000 Z12 * Z14  ] = 0
ac9: [ 1.0000000000000000 Z0 * Z20 -1.0000000000000000 Z1 * Z8  ] = 0
ac10: [ 1.0000000000000000 Z6 * Z20 -1.0000000000000000 Z8 * Z18  ] = 0
ac11: [ 1.0000000000000000 Z7 * Z20 -1.0000000000000000 Z8 * Z19  ] = 0
ac12: [ 1.0000000000000000 Z0 * Z34 -1.0000000000000000 Z10 * Z15  ] = 0
ac13: [ 1.0000000000000000 Z0 * Z37 -1.0000000000000000 Z11 * Z14  ] = 0
ac14: [ 1.0000000000000000 Z0 * Z21 -1.0000000000000000 Z2 * Z5  ] = 0
ac15: [ 1.0000000000000000 Z0 * Z22 -1.0000000000000000 Z2 * Z7  ] = 0
ac16: [ 1.0000000000000000 Z1 * Z22 -1.0000000000000000 Z2 * Z19  ] = 0
ac17: [ 1.0000000000000000 Z5 * Z22 -1.0000000000000000 Z7 * Z21  ] = 0
ac18: [ 1.0000000000000000 Z0 * Z32 -1.0000000000000000 Z9 * Z16  ] = 0
ac19: [ 1.0000000000000000 Z0 * Z39 -1.0000000000000000 Z12 * Z13  ] = 0
ac20: [ 1.0000000000000000 Z0 * Z23 -1.0000000000000000 Z2 * Z8  ] = 0
ac21: [ 1.0000000000000000 Z1 * Z23 -1.0000000000000000 Z2 * Z20  ] = 0
ac22: [ 1.0000000000000000 Z5 * Z23 -1.0000000000000000 Z8 * Z21  ] = 0
ac23: [ 1.0000000000000000 Z7 * Z23 -1.0000000000000000 Z8 * Z22  ] = 0
ac24: [ 1.0000000000000000 Z19 * Z23 -1.0000000000000000 Z20 * Z22  ] = 0
ac25: [ 1.0000000000000000 Z0 * Z31 -1.0000000000000000 Z9 * Z15  ] = 0
ac26: [ 1.0000000000000000 Z0 * Z36 -1.0000000000000000 Z11 * Z13  ] = 0
ac27: [ 1.0000000000000000 Z0 * Z24 -1.0000000000000000 Z3 * Z5  ] = 0
ac28: [ 1.0000000000000000 Z2 * Z24 -1.0000000000000000 Z3 * Z21  ] = 0
ac29: [ 1.0000000000000000 Z0 * Z25 -1.0000000000000000 Z3 * Z6  ] = 0
ac30: [ 1.0000000000000000 Z1 * Z25 -1.0000000000000000 Z3 * Z18  ] = 0
ac31: [ 1.0000000000000000 Z5 * Z25 -1.0000000000000000 Z6 * Z24  ] = 0
ac32: [ 1.0000000000000000 Z0 * Z26 -1.0000000000000000 Z3 * Z8  ] = 0
ac33: [ 1.0000000000000000 Z1 * Z26 -1.0000000000000000 Z3 * Z20  ] = 0
ac34: [ 1.0000000000000000 Z2 * Z26 -1.0000000000000000 Z3 * Z23  ] = 0
ac35: [ 1.0000000000000000 Z5 * Z26 -1.0000000000000000 Z8 * Z24  ] = 0
ac36: [ 1.0000000000000000 Z6 * Z26 -1.0000000000000000 Z8 * Z25  ] = 0
ac37: [ 1.0000000000000000 Z18 * Z26 -1.0000000000000000 Z20 * Z25  ] = 0
ac38: [ 1.0000000000000000 Z21 * Z26 -1.0000000000000000 Z23 * Z24  ] = 0
ac39: [ 1.0000000000000000 Z0 * Z30 -1.0000000000000000 Z9 * Z14  ] = 0
ac40: [ 1.0000000000000000 Z0 * Z33 -1.0000000000000000 Z10 * Z13  ] = 0
ac41: [ 1.0000000000000000 Z0 * Z27 -1.0000000000000000 Z4 * Z5  ] = 0
ac42: [ 1.0000000000000000 Z2 * Z27 -1.0000000000000000 Z4 * Z21  ] = 0
ac43: [ 1.0000000000000000 Z3 * Z27 -1.0000000000000000 Z4 * Z24  ] = 0
ac44: [ 1.0000000000000000 Z0 * Z28 -1.0000000000000000 Z4 * Z6  ] = 0
ac45: [ 1.0000000000000000 Z1 * Z28 -1.0000000000000000 Z4 * Z18  ] = 0
ac46: [ 1.0000000000000000 Z3 * Z28 -1.0000000000000000 Z4 * Z25  ] = 0
ac47: [ 1.0000000000000000 Z5 * Z28 -1.0000000000000000 Z6 * Z27  ] = 0
ac48: [ 1.0000000000000000 Z24 * Z28 -1.0000000000000000 Z25 * Z27  ] = 0
ac49: [ 1.0000000000000000 Z0 * Z29 -1.0000000000000000 Z4 * Z7  ] = 0
ac50: [ 1.0000000000000000 Z1 * Z29 -1.0000000000000000 Z4 * Z19  ] = 0
ac51: [ 1.0000000000000000 Z2 * Z29 -1.0000000000000000 Z4 * Z22  ] = 0
ac52: [ 1.0000000000000000 Z5 * Z29 -1.0000000000000000 Z7 * Z27  ] = 0
ac53: [ 1.0000000000000000 Z6 * Z29 -1.0000000000000000 Z7 * Z28  ] = 0
ac54: [ 1.0000000000000000 Z18 * Z29 -1.0000000000000000 Z19 * Z28  ] = 0
ac55: [ 1.0000000000000000 Z21 * Z29 -1.0000000000000000 Z22 * Z27  ] = 0
Bounds
1 <= Z0 <= 1
0.0000000000000000 <= Z1 <= 1.0000000000000000
0.0000000000000000 <= Z2 <= 1.0000000000000000
0.0000000000000000 <= Z3 <= 1.0000000000000000
0.0000000000000000 <= Z4 <= 1.0000000000000000
0.0000000000000000 <= Z5 <= 1.0000000000000000
0.0000000000000000 <= Z6 <= 1.0000000000000000
0.0000000000000000 <= Z7 <= 1.0000000000000000
0.0000000000000000 <= Z8 <= 1.0000000000000000
0.0000000000000000 <= Z9 <= 1.0000000000000000
0.0000000000000000 <= Z10 <= 1.0000000000000000
0.0000000000000000 <= Z11 <= 1.0000000000000000
0.0000000000000000 <= Z12 <= 1.0000000000000000
0.0000000000000000 <= Z13 <= 1.0000000000000000
0.0000000000000000 <= Z14 <= 1.0000000000000000
0.0000000000000000 <= Z15 <= 1.0000000000000000
0.0000000000000000 <= Z16 <= 1.0000000000000000
-100000000.0000000000000000 <= Z17 <= 100000000.0000000000000000
0.0000000000000000 <= Z18 <= 1.0000000000000000
0.0000000000000000 <= Z19 <= 1.0000000000000000
0.0000000000000000 <= Z20 <= 1.0000000000000000
0.0000000000000000 <= Z21 <= 1.0000000000000000
0.0000000000000000 <= Z22 <= 1.0000000000000000
0.0000000000000000 <= Z23 <= 1.0000000000000000
0.0000000000000000 <= Z24 <= 1.0000000000000000
0.0000000000000000 <= Z25 <= 1.0000000000000000
0.0000000000000000 <= Z26 <= 1.0000000000000000
0.0000000000000000 <= Z27 <= 1.0000000000000000
0.0000000000000000 <= Z28 <= 1.0000000000000000
0.0000000000000000 <= Z29 <= 1.0000000000000000
0.0000000000000000 <= Z30 <= 1.0000000000000000
0.0000000000000000 <= Z31 <= 1.0000000000000000
0.0000000000000000 <= Z32 <= 1.0000000000000000
0.0000000000000000 <= Z33 <= 1.0000000000000000
0.0000000000000000 <= Z34 <= 1.0000000000000000
0.0000000000000000 <= Z35 <= 1.0000000000000000
0.0000000000000000 <= Z36 <= 1.0000000000000000
0.0000000000000000 <= Z37 <= 1.0000000000000000
0.0000000000000000 <= Z38 <= 1.0000000000000000
0.0000000000000000 <= Z39 <= 1.0000000000000000
0.0000000000000000 <= Z40 <= 1.0000000000000000
0.0000000000000000 <= Z41 <= 1.0000000000000000
Binaries
Z1 Z2 Z3 Z4 Z5 Z6 Z7 Z8 Z9 Z10 Z11 Z12 Z13 Z14 Z15 Z16 
End